(set-info :smt-lib-version 2.6)
(set-logic QF_S)
(set-info :source |
Generated by: Joel Day, Thorsten Ehlers, Mitja Kulczynski, Federico Mora, Florin Manea, Dirk Nowotka, Danny Poulsen, Zhengyang Lu
Application: Test WOORPJE
Target solver: WOORPJE
Publications: Day, J. D., Ehlers, T., Kulczynski, M., Manea, F., Nowotka, D., & Poulsen, D. B. (2019). On solving word equations using SAT. In RP 2019
Description: Transoformed and expanded from Track02
|)
(set-info :license "https://creativecommons.org/licenses/by/4.0/")
(set-info :category "random")
(set-info :status unknown)

(declare-fun J () String)
(declare-fun H () String)
(declare-fun K () String)
(declare-fun I () String)
(declare-fun G () String)
(declare-fun L () String)
(declare-fun N () String)
(declare-fun O () String)
(declare-fun M () String)
(declare-fun P () String)
(assert (= (str.++  G H "a" I "aa" G H "a" I "ab" K K J "abaa" L "b" N "ba")  (str.++  "aaaa" H "aaa" H I "a" J "a" J K "aa" J "a" J K "ab" L "a" M L "a" M "b" O O "b" P P "baa") ))
(check-sat)

(exit)
